DIMENSION :18
NODE_COORD_SECTION
1 55.9554869558996 86.85236206944785
2 94.36500195041143 33.67040869657254
3 -31.063572438771246 -42.14604963341693
4 -1.4734445919268921 86.20888312546404
5 -72.26824211209073 -20.6534619936606
6 -93.94714066816492 -81.74231705497641
7 79.1519033406015 9.396265356180521
8 52.243542589660166 -77.6373022447084
9 -25.001240350112283 51.70338037721899
10 -59.945151313301295 33.06166531836189
11 71.79960100215166 -66.03563303406048
12 -37.36858101949343 61.57152014033451
13 60.11652652827448 5.044511815624418
14 -44.278162943916776 -29.287412605208957
15 -74.92670391786248 -73.52024699241619
16 -62.42320219491609 -8.923239520510705
17 -78.03205714793305 -32.38437510799463
18 41.78040795557061 -96.13929851373169
EOF
